%nprocshared=4
%mem=500Mb
#p SCF(Tight,Conver=8) Integral(Grid=UltraFine) IOp(6/7=3) b3lyp/6-31g* nosymm

autogen

0 2 
H-Bq -4.212104 -0.520176 -0.146775 
C-Bq -3.207838 -0.129795 -0.051610 
C-Bq -2.814918 1.155429 0.201083 
H-Bq -3.510144 1.975745 0.343102 
C-Bq -1.399568 1.298678 0.270902 
H-Bq -0.899699 2.237458 0.485125 
C-Bq -0.715670 0.119793 0.069015 
S-Bq -1.846155 -1.191446 -0.226132 
C 0.715645 -0.119816 0.069059
C 1.399573 -1.298641 0.271016
H 0.899735 -2.237446 0.485218
C 2.814907 -1.155399 0.201018
H 3.510126 -1.975757 0.342852
C 3.207873 0.129809 -0.051568
S 1.846151 1.191431 -0.226132
H 4.212152 0.520074 -0.146791

