%nprocshared=4
%mem=500Mb
#p SCF(Tight,Conver=8) Integral(Grid=UltraFine) IOp(6/7=3) b3lyp/6-31g* nosymm

autogen

0 2 
C -0.735270 0.099736 -0.194211
C -1.603764 -0.939586 0.194882
C -1.294623 1.333634 -0.581759
C -2.976011 -0.736942 0.191151
H -1.189323 -1.889353 0.523650
C -2.672104 1.543663 -0.586372
H -0.634793 2.131432 -0.910564
C -4.089390 -1.691576 0.576624
C -3.520194 0.504492 -0.198166
H -3.073374 2.504583 -0.898627
H -4.086569 -2.598980 -0.043472
C -5.336653 -0.857615 0.357545
H -3.998147 -2.029487 1.618417
C -4.982596 0.430289 -0.098180
C -6.672035 -1.196561 0.541995
C -5.969754 1.380708 -0.369769
C -7.659594 -0.242912 0.269107
H -6.950971 -2.187440 0.893251
C -7.309337 1.034240 -0.182937
H -5.704151 2.374672 -0.720963
H -8.706987 -0.496419 0.409426
H -8.087893 1.763596 -0.390564
H-Bq 3.998148 2.029487 1.618417 
C-Bq 1.294622 -1.333633 -0.581760 
C-Bq 0.735270 -0.099734 -0.194212 
C-Bq 1.603765 0.939587 0.194881 
C-Bq 2.976012 0.736942 0.191150 
C-Bq 3.520194 -0.504492 -0.198167 
C-Bq 2.672104 -1.543662 -0.586373 
H-Bq 0.634793 -2.131431 -0.910565 
H-Bq 1.189323 1.889354 0.523649 
H-Bq 3.073373 -2.504582 -0.898627 
C-Bq 4.089391 1.691577 0.576624 
H-Bq 4.086571 2.598981 -0.043472 
C-Bq 5.336654 0.857615 0.357545 
C-Bq 6.672035 1.196560 0.541995 
C-Bq 7.659594 0.242910 0.269108 
C-Bq 7.309336 -1.034241 -0.182938 
C-Bq 5.969754 -1.380708 -0.369770 
C-Bq 4.982595 -0.430289 -0.098180 
H-Bq 6.950972 2.187439 0.893252 
H-Bq 8.706987 0.496417 0.409427 
H-Bq 8.087893 -1.763598 -0.390565 
H-Bq 5.704151 -2.374672 -0.720963 

